4 100
0 40.0 50.0 0.0 0.0 0 1236
2 45.0 68.0 90.0 10.0 760 1120
3 45.0 70.0 90.0 30.0 668 1028
4 42.0 66.0 90.0 10.0 16 376
5 42.0 68.0 90.0 10.0 575 935
6 42.0 65.0 90.0 10.0 15 375
7 40.0 69.0 90.0 20.0 482 842
8 40.0 66.0 90.0 20.0 18 378
9 38.0 68.0 90.0 20.0 110 470
10 38.0 70.0 90.0 10.0 390 750
11 35.0 66.0 90.0 10.0 204 564
12 35.0 69.0 90.0 10.0 297 657
13 25.0 85.0 90.0 20.0 507 867
14 22.0 75.0 90.0 30.0 30 390
15 22.0 85.0 90.0 10.0 414 774
16 20.0 80.0 90.0 40.0 227 587
17 20.0 85.0 90.0 40.0 322 682
18 18.0 75.0 90.0 20.0 33 393
19 15.0 75.0 90.0 20.0 37 397
20 15.0 80.0 90.0 10.0 132 492
21 30.0 50.0 90.0 10.0 10 370
22 30.0 52.0 90.0 20.0 760 1120
23 28.0 52.0 90.0 20.0 668 1028
24 28.0 55.0 90.0 10.0 575 935
25 25.0 50.0 90.0 10.0 15 375
26 25.0 52.0 90.0 40.0 17 377
27 25.0 55.0 90.0 10.0 482 842
28 23.0 52.0 90.0 10.0 109 469
29 23.0 55.0 90.0 20.0 390 750
30 20.0 50.0 90.0 10.0 202 562
31 20.0 55.0 90.0 10.0 297 657
32 10.0 35.0 90.0 20.0 39 399
33 10.0 40.0 90.0 30.0 31 391
34 8.0 40.0 90.0 40.0 33 393
35 8.0 45.0 90.0 20.0 604 964
36 5.0 35.0 90.0 10.0 134 494
37 5.0 45.0 90.0 10.0 511 871
38 2.0 40.0 90.0 20.0 229 589
39 0.0 40.0 90.0 30.0 321 681
40 0.0 45.0 90.0 20.0 416 776
41 35.0 30.0 90.0 10.0 113 473
42 35.0 32.0 90.0 10.0 21 381
43 33.0 32.0 90.0 20.0 19 379
44 33.0 35.0 90.0 10.0 16 376
45 32.0 30.0 90.0 10.0 206 566
46 30.0 30.0 90.0 10.0 391 751
47 30.0 32.0 90.0 30.0 299 659
48 30.0 35.0 90.0 10.0 767 1127
49 28.0 30.0 90.0 10.0 483 843
50 28.0 35.0 90.0 10.0 766 1126
51 26.0 32.0 90.0 10.0 668 1028
52 25.0 30.0 90.0 10.0 576 936
53 25.0 35.0 90.0 10.0 761 1121
54 44.0 5.0 90.0 20.0 137 497
55 42.0 10.0 90.0 40.0 42 402
56 42.0 15.0 90.0 10.0 35 395
57 40.0 5.0 90.0 30.0 231 591
58 40.0 15.0 90.0 40.0 35 395
59 38.0 5.0 90.0 30.0 323 683
60 38.0 15.0 90.0 10.0 516 876
61 35.0 5.0 90.0 20.0 416 776
62 50.0 30.0 90.0 10.0 391 751
63 50.0 35.0 90.0 20.0 110 470
64 50.0 40.0 90.0 50.0 15 375
65 48.0 30.0 90.0 10.0 483 843
66 48.0 40.0 90.0 10.0 12 372
67 47.0 35.0 90.0 10.0 671 1031
68 47.0 40.0 90.0 10.0 12 372
69 45.0 30.0 90.0 10.0 576 936
70 45.0 35.0 90.0 10.0 763 1123
71 95.0 30.0 90.0 30.0 242 602
72 95.0 35.0 90.0 20.0 147 507
73 53.0 30.0 90.0 10.0 298 658
74 92.0 30.0 90.0 10.0 335 695
75 53.0 35.0 90.0 50.0 203 563
76 45.0 65.0 90.0 20.0 770 1130
77 90.0 35.0 90.0 10.0 52 412
78 88.0 30.0 90.0 10.0 429 789
79 88.0 35.0 90.0 20.0 50 410
80 87.0 30.0 90.0 10.0 520 880
81 85.0 25.0 90.0 10.0 615 975
82 85.0 35.0 90.0 30.0 47 407
83 75.0 55.0 90.0 20.0 215 575
84 72.0 55.0 90.0 10.0 122 482
85 70.0 58.0 90.0 20.0 311 671
86 68.0 60.0 90.0 30.0 404 764
87 66.0 55.0 90.0 10.0 26 386
88 65.0 55.0 90.0 20.0 25 385
89 65.0 60.0 90.0 30.0 497 857
90 63.0 58.0 90.0 10.0 590 950
91 60.0 55.0 90.0 10.0 20 380
92 60.0 60.0 90.0 10.0 683 1043
93 67.0 85.0 90.0 20.0 225 585
94 65.0 85.0 90.0 40.0 317 677
95 65.0 82.0 90.0 10.0 131 491
96 62.0 80.0 90.0 30.0 38 398
97 60.0 80.0 90.0 10.0 36 396
98 60.0 85.0 90.0 30.0 412 772
99 58.0 75.0 90.0 20.0 30 390
100 55.0 80.0 90.0 10.0 602 962
101 55.0 85.0 90.0 20.0 507 867